c --- [ banner ] -------------------------------------------------------------
c 
c CaDiCaL Radically Simplified CDCL SAT Solver
c Copyright (c) 2016-2021 A. Biere, M. Fleury, N. Froleyks
c 
c Version 1.5.2 a5f15211db36c3956764e18194dd5bd63bf3b5e6
c g++ (GCC) 9.3.0 -Wall -Wextra -O3 -DNDEBUG
c Fri Oct 21 01:27:37 EDT 2022 Linux gra-login3 3.10.0-1160.66.1.el7.x86_64 x86_64
c 
c --- [ limit ] --------------------------------------------------------------
c 
c setting conflict limit to 200000 conflicts (due to '200000')
c 
c --- [ parsing input ] ------------------------------------------------------
c 
c reading DIMACS file from '33.cubes1110.adj'
c opening file to read '33.cubes1110.adj'
c found 'p cnf 6160 1595469' header
c parsed 1595469 clauses in 19.66 seconds process time
c closing file '33.cubes1110.adj'
c after reading 1457566733 bytes 1390.0 MB
c 
c --- [ options ] ------------------------------------------------------------
c 
c all options are set to their default value
c 
c --- [ solving ] ------------------------------------------------------------
c 
c time measured in process time since initialization
c 
c  seconds    reductions  redundant   irredundant
c          MB     restarts       trail       variables
c            level   conflicts       glue         remaining
c 
c * 19.66 1362  0 0   0    0    0  0% 0 1595422 2497 41%
c { 20.03 1383  0 0   0    0    0  0% 0 1595422 2497 41%
c i 20.04 1383  1 0   0    1    0 11% 0 1595422 2484 40%
c i 20.49 1407 1037 0   0   20   18 32% 1 1595422 2469 40%
c i 21.47 1447 680 0   4   43   30 28% 2 1595422 2457 40%
c i 22.73 1471 562 0   7   57   43 29% 18 1595422 2456 40%
c i 22.83 1471 555 0   8   58   43 28% 18 1595422 2445 40%
c i 23.13 1473 526 0   9   62   46 29% 19 1595422 2443 40%
c i 23.14 1473 517 0   9   63   46 29% 19 1595422 2442 40%
c i 23.86 1485 435 0  14   77   59 29% 22 1595422 2441 40%
c i 24.46 1488 338 0  20  106   80 28% 27 1595422 2440 40%
c i 24.77 1491 307 0  24  119   92 28% 27 1595422 2439 40%
c i 25.58 1495 248 0  30  156  127 28% 26 1595422 2438 40%
c i 25.68 1495 241 0  30  162  132 28% 26 1595422 2429 39%
c i 25.88 1495 238 0  30  165  134 28% 27 1595422 2428 39%
c i 25.89 1495 236 0  30  166  134 28% 27 1595422 2427 39%
c i 26.14 1496 217 0  33  186  152 28% 27 1595422 2425 39%
c i 26.27 1497 214 0  33  195  157 28% 28 1595422 2422 39%
c i 26.39 1497 204 0  36  208  167 28% 29 1595422 2421 39%
c i 26.51 1498 180 0  38  239  185 28% 27 1595422 2420 39%
c 
c  seconds     reductions  redundant    irredundant
c          MB      restarts       trail        variables
c             level   conflicts       glue          remaining
c 
c i 26.53 1498 179 0  38  242  186 28% 27 1595422 2419 39%
c i 26.55 1498 178 0  38  243  186 28% 26 1595422 2418 39%
c i 26.60 1498 174 0  38  251  191 28% 26 1595422 2417 39%
c i 26.60 1498 173 0  38  252  191 27% 26 1595422 2416 39%
c i 26.60 1498 172 0  38  253  191 27% 26 1595422 2415 39%
c i 26.71 1498 160 0  38  281  211 28% 27 1595422 2414 39%
c i 26.72 1498 160 0  38  282  211 28% 27 1595422 2413 39%
c i 26.72 1498 159 0  38  284  212 28% 27 1595422 2412 39%
c i 26.73 1498 158 0  38  285  212 28% 27 1595422 2411 39%
c - 30.30 1465 153 1  38  301  221 28% 27 279798 2411 39%
c i 30.40 1432 153 1  38  302  221 28% 27 279798 2410 39%
c i 30.51 1432 149 1  38  315  233 28% 27 279798 2409 39%
c i 30.74 1432 123 1  42  409  295 28% 27 279798 2408 39%
c i 30.75 1432 119 1  42  429  310 28% 27 279798 2407 39%
c i 30.75 1432 117 1  42  436  316 28% 27 279798 2406 39%
c i 30.78 1384 117 1  42  437  316 28% 27 279798 2405 39%
c i 30.78 1384 116 1  42  439  317 28% 26 279798 2404 39%
c i 30.79 1384 116 1  42  440  317 28% 26 279798 2403 39%
c i 30.88 1384 107 1  42  497  358 28% 25 279798 2402 39%
c i 30.90 1384 106 1  42  498  358 28% 25 279798 2401 39%
c 
c  seconds     reductions  redundant   irredundant
c          MB      restarts       trail       variables
c             level   conflicts       glue         remaining
c 
c i 30.90 1384 106 1  42  499  358 28% 25 279798 2400 39%
c i 30.97 1384 100 1  42  542  392 28% 25 279798 2399 39%
c i 31.00 1384 94 1  42  589  428 28% 25 279798 2398 39%
c i 31.03 1384 89 1  42  642  466 28% 24 279798 2397 39%
c i 31.12 1384 85 1  43  704  522 28% 24 279798 2396 39%
c i 31.15 1384 86 1  44  714  528 28% 25 279798 2385 39%
c i 31.18 1384 85 1  45  719  531 28% 25 279798 2383 39%
c i 31.19 1384 85 1  46  720  531 28% 25 279798 2382 39%
c i 31.43 1384 86 1  52  742  549 28% 25 279798 2379 39%
c i 31.45 1384 86 1  53  746  552 28% 25 279798 2378 39%
c i 31.50 1384 86 1  55  755  559 28% 25 279798 2377 39%
c i 31.53 1384 86 1  57  765  567 28% 25 279798 2376 39%
c i 31.53 1384 86 1  57  772  570 28% 25 279798 2374 39%
c i 31.57 1384 86 1  57  776  573 28% 25 279798 2373 39%
c i 31.62 1384 85 1  57  795  588 28% 25 279798 2372 39%
c i 31.63 1384 85 1  57  798  590 28% 25 279798 2371 38%
c i 31.72 1384 81 1  57  846  624 28% 24 279798 2370 38%
c i 31.75 1384 81 1  57  856  632 28% 24 279798 2369 38%
c i 31.75 1384 80 1  57  858  633 28% 24 279798 2368 38%
c i 31.75 1384 80 1  57  861  635 28% 24 279798 2367 38%
c 
c  seconds    reductions  redundant   irredundant
c          MB     restarts       trail       variables
c            level   conflicts       glue         remaining
c 
c i 31.75 1384 80 1  57  862  635 28% 24 279798 2366 38%
c i 31.75 1384 80 1  57  863  635 28% 24 279798 2365 38%
c i 31.77 1384 79 1  57  879  650 28% 24 279798 2364 38%
c i 31.95 1384 78 1  57  910  678 28% 24 279798 2363 38%
c i 32.19 1384 78 1  58  955  716 28% 24 279798 2351 38%
c i 32.45 1384 77 1  62  992  744 28% 24 279798 2350 38%
c } 32.48 1384 77 1  62 1000  751 28% 24 279798 2350 38%
c [ 32.48 1384  0 1  62 1000  751  0% 0 279798 2350 38%
c O 32.48 1384 29 1  62 1004  754 26% 19 279798 2350 38%
c i 32.65 1384 11 1  62 1018  766 21% 7 279798 2349 38%
c i 32.65 1384 10 1  62 1019  766 21% 6 279798 2348 38%
c i 32.67 1384 10 1  62 1025  771 24% 7 279798 2347 38%
c i 32.67 1385  9 1  62 1026  771 24% 6 279798 2346 38%
c i 32.67 1385  9 1  62 1027  771 24% 6 279798 2345 38%
c i 32.75 1384 11 1  62 1031  774 25% 8 279798 2344 38%
c i 32.84 1384 15 1  62 1051  786 28% 12 279798 2343 38%
c i 32.85 1384 15 1  62 1052  786 28% 12 279798 2342 38%
c i 32.90 1384 15 1  62 1066  794 29% 13 279798 2341 38%
c i 32.90 1384 15 1  62 1067  794 29% 13 279798 2340 38%
c i 32.92 1384 15 1  62 1080  800 30% 13 279798 2339 38%
c 
c  seconds    reductions  redundant   irredundant
c          MB     restarts       trail       variables
c            level   conflicts       glue         remaining
c 
c i 32.95 1384 15 1  62 1109  816 31% 13 279798 2338 38%
c i 32.99 1384 15 1  62 1144  823 31% 13 279798 2337 38%
c i 32.99 1384 15 1  62 1148  826 31% 13 279798 2336 38%
c i 32.99 1384 15 1  62 1154  830 31% 13 279798 2335 38%
c i 32.99 1384 15 1  62 1156  831 31% 13 279798 2334 38%
c i 32.99 1384 15 1  62 1158  831 31% 13 279798 2333 38%
c i 32.99 1384 15 1  62 1159  831 31% 13 279798 2332 38%
c - 33.53 1505 14 2  62 1170  717 31% 12 279218 2332 38%
c i 33.72 1505 14 2  62 1231  741 32% 13 279218 2331 38%
c i 33.76 1505 14 2  62 1299  773 32% 12 279218 2330 38%
c i 33.77 1505 14 2  62 1312  776 32% 12 279218 2329 38%
c i 33.77 1505 14 2  62 1327  783 32% 12 279218 2328 38%
c i 33.79 1505 14 2  62 1378  798 32% 12 279218 2327 38%
c i 33.81 1505 14 2  62 1405  809 32% 12 279218 2326 38%
c i 33.85 1505 14 2  62 1485  845 32% 12 279218 2325 38%
c i 33.86 1505 14 2  62 1494  853 32% 12 279218 2324 38%
c i 33.89 1505 14 2  62 1545  876 32% 12 279218 2323 38%
c i 33.89 1505 14 2  62 1556  877 32% 12 279218 2322 38%
c i 33.90 1505 14 2  62 1563  877 32% 12 279218 2321 38%
c i 33.90 1505 14 2  62 1569  881 32% 12 279218 2320 38%
c 
c  seconds    reductions  redundant   irredundant
c          MB     restarts       trail       variables
c            level   conflicts       glue         remaining
c 
c i 33.90 1505 14 2  62 1570  881 32% 12 279218 2319 38%
c i 33.91 1505 14 2  62 1581  888 32% 12 279218 2318 38%
c i 33.91 1505 14 2  62 1583  887 32% 12 279218 2317 38%
c i 33.91 1505 14 2  62 1584  887 32% 12 279218 2316 38%
c i 33.91 1505 14 2  62 1586  888 32% 12 279218 2315 38%
c i 33.91 1505 14 2  62 1594  886 32% 12 279218 2314 38%
c i 34.12 1505 15 2  63 2080 1100 32% 13 279218 2313 38%
c i 34.14 1505 15 2  63 2125 1126 32% 13 279218 2312 38%
c i 34.14 1505 15 2  63 2126 1126 32% 13 279218 2311 38%
c i 34.15 1505 15 2  63 2157 1143 32% 13 279218 2310 38%
c i 34.23 1505 16 2  63 2399 1274 32% 14 279218 2309 37%
c i 34.23 1505 16 2  63 2403 1276 32% 14 279218 2308 37%
c i 34.25 1505 16 2  63 2443 1289 32% 14 279218 2307 37%
c - 34.65 1500 16 3  63 2473  920 32% 14 279145 2307 37%
c i 34.97 1500 16 3  63 2527  954 52% 14 279145 2306 37%
c ] 35.18 1500 16 3  63 3003 1214 55% 14 279145 2306 37%
c { 35.18 1500 77 3  63 3003 1214 75% 24 279145 2306 37%
c F 35.19 1500 77 3  63 3009 1220 75% 24 279145 2306 37%
c i 35.52 1500 70 3  63 3159 1337 71% 22 279145 2305 37%
c i 35.55 1500 69 3  63 3185 1360 71% 22 279145 2304 37%
c 
c  seconds    reductions  redundant   irredundant
c          MB     restarts       trail       variables
c            level   conflicts       glue         remaining
c 
c i 35.56 1500 68 3  63 3220 1389 70% 22 279145 2303 37%
c i 35.58 1500 67 3  63 3234 1400 69% 22 279145 2302 37%
c i 35.58 1500 67 3  63 3237 1402 69% 22 279145 2301 37%
c i 35.78 1500 64 3  63 3323 1465 68% 21 279145 2300 37%
c - 36.79 1499 48 4  63 4209 1636 60% 20 279124 2300 37%
c i 36.84 1499 48 4  63 4226 1652 60% 20 279124 2299 37%
c i 37.08 1499 47 4  78 4353 1749 59% 20 279124 2298 37%
c i 37.19 1499 47 4  82 4422 1806 59% 20 279124 2297 37%
c i 37.24 1499 47 4  83 4444 1827 59% 20 279124 2296 37%
c i 37.25 1499 47 4  83 4452 1831 59% 20 279124 2295 37%
c i 37.61 1499 47 4 101 4564 1932 59% 20 279124 2294 37%
c i 37.67 1499 47 4 107 4586 1952 59% 21 279124 2291 37%
c i 37.73 1499 47 4 113 4610 1974 58% 21 279124 2290 37%
c i 37.79 1499 48 4 123 4649 2009 58% 21 279124 2286 37%
c i 38.28 1499 48 4 142 4824 2158 57% 21 279124 2285 37%
c i 38.31 1499 48 4 142 4848 2179 57% 21 279124 2284 37%
c i 38.32 1499 48 4 142 4864 2192 57% 21 279124 2283 37%
c i 38.34 1499 47 4 142 4906 2230 57% 21 279124 2282 37%
c d 38.85 1499 47 4 142 5002 2306 57% 21 254655 2267 37%
c 2 38.90 1499 47 4 142 5002 3372 57% 21 254644 2263 37%
c 
c  seconds    reductions  redundant   irredundant
c          MB     restarts       trail       variables
c            level   conflicts       glue         remaining
c 
c p 41.25 1499 47 4 142 5002 6472 57% 21 254644 2179 35%
c d 41.66 1499 47 4 142 5002 6299 57% 21 254159 2174 35%
c # 42.65 1499 41 4 151 6010 7006 54% 20 254159 2174 35%
c - 43.29 1386 40 5 175 6383 2517 54% 21 254159 2174 35%
c } 43.45 1386 37 5 178 7004 2879 54% 20 254159 2174 35%
c [ 43.45 1386 16 5 178 7004 2879 55% 14 254159 2174 35%
c - 44.03 1387 20 6 179 8913 2673 53% 17 254159 2174 35%
c I 44.38 1387 20 6 180 10014 3347 53% 17 254159 2174 35%
c - 46.09 1387 38 7 182 11863 3352 50% 30 254159 2174 35%
c 2 47.74 1386 43 7 183 15002 6603 50% 35 254154 2174 35%
c p 48.60 1387 43 7 183 15002 9573 50% 35 254154 2174 35%
c ] 48.66 1387 43 7 183 15005 9574 50% 35 254154 2174 35%
c { 48.66 1387 37 7 183 15005 9574 54% 20 254154 2174 35%
c B 48.74 1387 37 7 183 15016 9585 54% 20 254154 2174 35%
c - 49.80 1386 38 8 234 15235 3989 53% 20 254154 2174 35%
c } 55.51 1387 37 8 437 18384 6231 51% 21 254154 2174 35%
c 1 55.51 1387 37 8 437 18384 6231 51% 21 254154 2174 35%
c 
c --- [ writing output ] -----------------------------------------------------
c 
c writing simplified CNF to DIMACS file 'simp/33.cubes1110.adj.simp1'
c * 55.51 1387 37 8 437 18384 6231 51% 21 254154 2174 35%
c opening file to write 'simp/33.cubes1110.adj.simp1'
c writing 'p cnf 6160 254154' header
c closing file 'simp/33.cubes1110.adj.simp1'
c after writing 103888127 bytes 99.1 MB
c wrote 254154 clauses in 0.74 seconds process time
c 
c --- [ writing extension ] --------------------------------------------------
c 
c writing extension stack to 'simp/33.cubes1110.adj.ext1'
c opening file to write 'simp/33.cubes1110.adj.ext1'
c closing file 'simp/33.cubes1110.adj.ext1'
c after writing 12946 bytes 0.0 MB
c wrote 862 witnesses in 0.00 seconds process time
c 
c --- [ result ] -------------------------------------------------------------
c 
s SATISFIABLE
c 
c --- [ run-time profiling ] -------------------------------------------------
c 
c process time taken by individual solving procedures
c (percentage relative to process time for solving)
c 
c        31.65   88.28% search
c        24.30   67.78% unstable
c        19.66   54.82% parse
c         6.98   19.48% stable
c         4.20   11.71% simplify
c         3.20    8.92% probe
c         0.37    1.03% lucky
c         0.07    0.20% ternary
c   =================================
c        35.85   63.74% solve
c 
c last line shows process time for solving
c (percentage relative to total process time)
c 
c --- [ statistics ] ---------------------------------------------------------
c 
c chronological:              3683        20.03 %  of conflicts
c conflicts:                 18384       512.76    per second
c decisions:                 57359      1599.82    per second
c fixed:                       822        13.34 %  of all variables
c learned:                   17955        97.67 %  per conflict
c learned_lits:            3221196       100.00 %  learned literals
c minimized:                     0         0.00 %  learned literals
c shrunken:                2118948        65.78 %  learned literals
c minishrunken:             188851         5.86 %  learned literals
c propagations:            2814327         0.08 M  per second
c reduced:                    6318        34.37 %  per conflict
c rephased:                      5      3676.80    interval
c restarts:                    437        42.07    interval
c stabilizing:                   2        54.42 %  of conflicts
c substituted:                  20         0.32 %  of all variables
c subsumed:                   5328         0.15 %  of all clauses
c ternary:                    2105         0.55 %  of resolved
c weakened:                     40         2.00    average size
c 
c seconds are measured in process time for solving
c 
c --- [ resources ] ----------------------------------------------------------
c 
c total process time since initialization:        56.25    seconds
c total real time since initialization:           56.75    seconds
c maximum resident set size of process:         1619.98    MB
c 
c --- [ shutting down ] ------------------------------------------------------
c 
c exit 10
WARNING! DIMACS header mismatch: wrong number of variables.
============================[ Problem Statistics ]=============================
|                                                                             |
|  Number of variables:          6120                                         |
|  Number of clauses:          254160                                         |
|  Parse time:                   1.37 s                                       |
|  Simplification time:          0.03 s                                       |
|                                                                             |
============================[ Search Statistics ]====================================================
| Conflicts |          ORIGINAL         |          LEARNT          | Num Sols |      SUBGRAPHS      |
|           |    Vars  Clauses Literals |    Limit  Clauses Lit/Cl |          | Canonical Noncanon. |
=====================================================================================================
|       241 |    6031   254301 22719348 |     2000      241     22 |        0 |        62       141 |
|       408 |    6031   254318 22719710 |     2000      408     41 |        0 |        79       158 |
|       670 |    6031   254355 22720437 |     2000      670     54 |        0 |        94       195 |
|      1022 |    6031   254370 22721065 |     2000     1022     74 |        0 |       101       210 |
|      1568 |    6031   254410 22721866 |     2000     1568     78 |        0 |       126       250 |
|      2330 |    6031   254413 22722100 |     3600     1330     60 |        0 |       139       253 |
|      4745 |    6031   255689 22741013 |     5003     1948     13 |        0 |       390      1529 |
|      7239 |    6031   256475 22751502 |     5003     4442     47 |        0 |       592      2315 |
|     11807 |    6031   258481 22783378 |     7557     3364     17 |        0 |      1108      4321 |
|     16600 |    6031   259430 22798732 |     8790     4390     25 |        0 |      1376      5270 |
|     23069 |    6031   260133 22809182 |    10001     6470     43 |        0 |      1607      5973 |
|     32796 |    6031   261211 22825817 |    11202    11198     62 |        0 |      2032      7051 |
|     50980 |    6031   266421 22904977 |    14811    10791     42 |        0 |      3347     12261 |
|     73924 |    6031   269904 22958862 |    18403     9727     24 |        0 |      4321     15744 |
|    111217 |    6031   278005 23067798 |    22016    17633     43 |        0 |      6373     23845 |
|    160095 |    6031   283094 23138752 |    26814    18909     41 |        0 |      8434     28934 |
|    238406 |    6031   295721 23299748 |    32811    24217     47 |        0 |     13016     41561 |
=====================================================================================================
Number of solutions   : 0
Canonical subgraphs   : 13817          (29 /sec)
          order  3    : 1              (166667 /sec)
          order  4    : 1              (333333 /sec)
          order  5    : 1              (250000 /sec)
          order  6    : 1              (52632 /sec)
          order  7    : 2              (10204 /sec)
          order  8    : 4              (2070 /sec)
          order  9    : 9              (433 /sec)
          order 10    : 38             (131 /sec)
          order 11    : 164            (42 /sec)
          order 12    : 875            (45 /sec)
          order 13    : 1157           (74 /sec)
          order 14    : 1402           (47 /sec)
          order 15    : 3022           (35 /sec)
          order 16    : 3361           (25 /sec)
          order 17    : 2000           (21 /sec)
          order 18    : 1377           (21 /sec)
          order 19    : 321            (21 /sec)
          order 20    : 58             (24 /sec)
          order 21    : 23             (37 /sec)
          order 22    : 0              (-nan /sec)
Noncanonical subgraphs: 44353          (330 /sec)
          order  3    : 0              (-nan /sec)
          order  4    : 0              (-nan /sec)
          order  5    : 0              (-nan /sec)
          order  6    : 0              (-nan /sec)
          order  7    : 0              (-nan /sec)
          order  8    : 0              (-nan /sec)
          order  9    : 0              (-nan /sec)
          order 10    : 0              (-nan /sec)
          order 11    : 0              (-nan /sec)
          order 12    : 0              (-nan /sec)
          order 13    : 8055           (2544 /sec)
          order 14    : 17114          (429 /sec)
          order 15    : 8049           (323 /sec)
          order 16    : 8588           (241 /sec)
          order 17    : 2520           (84 /sec)
          order 18    : 2              (89 /sec)
          order 19    : 1              (29412 /sec)
          order 20    : 0              (-nan /sec)
          order 21    : 0              (-nan /sec)
Canonicity checking   : 468.486 s
Noncanonicity checking: 134.496 s
Total canonicity time : 602.983 s
database reductions   : 26
restarts              : 605
conflicts             : 257518         (364 /sec)
decisions             : 398203         (0.00 % random) (563 /sec)
propagations          : 27028592       (38231 /sec)
conflict literals     : 23649349       (52.95 % deleted)
actual reward         : 0.116998
Memory used           : 288.00 MB
CPU time              : 706.981 s

UNSATISFIABLE
